! HF 6-311G(d,p) OPT FREQ
* xyz 0 3
 O    0.00000000   0.00000000   0.00000000
 O    1.20740000   0.00000000   0.00000000
*
