! B3LYP 6-311G(d,p) OPT FREQ NUMFREQ
%pal nprocs 8 END
* xyz 0 1
N    0.000000    0.000000    0.000000
N    1.452000    0.000000    0.000000
H   -0.349000    0.479000    0.829000
H   -0.349000    0.479000   -0.829000
H    1.103000   -0.829000    0.479000
H    1.103000    0.829000    0.479000
*

