! MP2 6-311G(d,p) ExtremeSCF 
! TIGHTOPT

%pal nprocs 4 end

%vpt2
	VPT2			On
	HessianCutoff 1e-12
	PrintLevel 1
end

* xyz 0 1
 O  0.000000  0.000000  0.000000
  H  0.758602  0.000000  0.504284
  H  0.758602  0.000000  -0.504284
*
