! HF 6-311G(d,p) OPT FREQ NUMFREQ
* xyz 0 1
C   0.000000   0.000000   0.000000
O   1.230000   0.000000   0.000000
O  -0.665000   1.151814   0.000000
O  -0.665000  -1.151814   0.000000
H  -0.022635   1.865233   0.000000
H  -0.022635  -1.865233   0.000000
*
