! RHF 6-311G(d,p) ExtremeSCF  VPT2

%pal nprocs 4 end

%vpt2
	VPT2			On
	HessianCutoff 1e-12
	PrintLevel 1
end

%method
  Z_Tol 1e-14
end


* xyz 0 1
  H           0.53036039082179      0.16149474613476      0.93864032178048
  C          -0.00001256540879     -0.00001314188843     -0.00002777074672
  H           0.20572863756968      0.82643412887223     -0.68057236321075
  H           0.33549369980864     -0.93415295550574     -0.45092389186881
  H          -1.07167016279132     -0.05386277761281      0.19268370404580
*
