! MP2 cc-pVTZ VERYTIGHTOPT NUMFREQ

%pal nprocs 4 end


* xyz 0 1
N     0.000000    0.000000    0.000000
H     0.940000    0.000000   -0.330000
H    -0.470000    0.810000   -0.330000
H    -0.470000   -0.810000   -0.330000
*
