! HF 6-311G(d,p) OPT FREQ
* xyz 0 1
 O                  0.93073595    1.06060604    0.00000000
 C                 -0.32766405    1.06060604    0.00000000
*
