%chk=co_gaussian.chk
# hf/3-21g geom=connectivity

Title Card Required

0 1
 O                  0.93073595    1.06060604    0.00000000
 C                 -0.32766405    1.06060604    0.00000000

 1 2 2.0
 2

