! B3LYP 6-311G(d,p) OPT FREQ NUMFREQ
* xyz 0 1
  N         0.000000        0.000000        0.000000
  N         1.097600        0.000000        0.000000
*

