! MP2 6-311G(d,p) OPT
%geom
  Scan 
  B 0 1 = 0.8, 2.0, 200
  end
end
* xyz 0 1
  O           0.87090241494122      1.06060604000000      0.00000000000000
  C          -0.26783051494122      1.06060604000000      0.00000000000000
	*
