! MP2 6-311G(d,p) OPT
%PAL NPROCS 6 END


%geom Scan
	B 0 1 =2.224, 0.7240, 150
	end
end
* xyz 0 3
  O                  2.84867661    1.15827336    0.03729123
  O                  1.68707661    1.15827336    0.03729123
*

