! MP2 6-311G(d,p) OPT
%geom
  Scan
  B 0 1 = 0.8, 2.0, 200
  end
end

* xyz 0 1
  O          -0.00832157200181      0.00000000000000      0.00000000000000
  O           1.21572157200181      0.00000000000000      0.00000000000000
*
