! RHF cc-PVDZ/C ExtremeSCF VPT2

%vpt2
	VPT2 	On
	HessianCutoff 	1e-12
	PrintLevel 	1	
	MinimiseOrcaPrint True
end

%method
	Z_Tol 	1e-14
end

%pal nprocs 4 end


* xyz 0 1
  C           0.09356223167900      0.00000000000003      0.00000001055351
  O           1.30021353231093     -0.00000000000022     -0.00000000050884
  O          -0.68682240827543      1.08527399443860      0.00000000095827
  O          -0.68682240827540     -1.08527399443839      0.00000000095824
  H          -0.08270047371965      1.84136684670137     -0.00000000598060
  H          -0.08270047371944     -1.84136684670138     -0.00000000598058
*
