! HF 6-311G(d,p) OPT FREQ
* xyz 0 1
H 0.0 0.0 -0.37
H 0.0 0.0  0.37
*

