<<<<<<< HEAD
! HF 6-311G(d,p) OPT FREQ
* xyz 0 1
H 0.0 0.0 -0.37
H 0.0 0.0  0.37
*

=======
! HF 6-311G(d,p) OPT FREQ NUMFREQ
* xyz 0 1
H  -0.370700   0.000000   0.000000
H   0.370700   0.000000   0.000000
*
>>>>>>> 0c29d438a49df62ff2fa5bbfa969bdc702e9668e
