! HF 6-311G(d,p) OPT FREQ NUMFREQ
* xyz 0 1
H  -0.370700   0.000000   0.000000
H   0.370700   0.000000   0.000000
*
