! RHF 6-311G(d,p) ExtremeSCF  VPT2

%pal nprocs 4 end

%vpt2
	VPT2			On
	HessianCutoff 1e-12
	PrintLevel 1
end

%method
  Z_Tol 1e-14
end

* xyz 0 1
  O           0.10579950836185      0.00000000000000      0.00000000000000
  H           0.70570224581907      0.00000000000000      0.74668419232728
  H           0.70570224581908      0.00000000000000     -0.74668419232728
*
