! B3LYP 6-311G(d,p) OPT FREQ NUMFREQ
* xyz 0 1
 O  0.000000  0.000000  0.000000
  H  0.758602  0.000000  0.504284
  H  0.758602  0.000000  -0.504284
*
