! HF 6-311G(d,p) OPT FREQ
* xyz 0 1
C 0.000000 0.000000 0.000000
O 0.000000 0.000000 1.155028
O 0.000000 0.000000 -1.155028
*
