! HF STO-3G

* xyz 0 1
C     -0.32226    0.28647    0.00000
C      1.21488    0.28648    0.00000
H      1.59580   -0.25656   -0.86782
H      1.59579    1.30955   -0.03636
H      1.59579   -0.19357    0.90420
H     -0.70318    0.76652   -0.90420
H     -0.70318   -0.73661    0.03637
H     -0.70318    0.82951    0.86783
*
